1 1231 7
2 1019 6
3 952 6
5 934 6
15 926 6
27 916 6
45 904 6
48 868 6



1 1184 6
2 1026 6
3 1010 6
4 993 6
6 992 6
7 951 6
12 945 6
13 944 6
14 930 6
19 901 6
40 893 6
56 892 6
85 890 6
223 878 6
267 870 6
461 869 6
910 868 6



1 1155 6
2 1059 7
3 1006 6
4 997 6
5 954 6
10 952 6
12 949 6
14 935 6
22 926 6
23 916 6
52 882 6
705 871 6



1 1112 6
2 1039 6
3 977 6
5 942 6
7 922 6
45 916 6
84 915 6
116 898 6
131 885 6
183 881 6
425 880 6



1 1215 6
2 1017 6
4 983 6
5 971 6
7 939 6
24 935 6
40 902 6
69 897 6
121 878 6
259 868 6



